p cnf 12 26
12 10 -3 0
12 9 -3 0
12 -8 2 0
-11 -10 9 0
11 -9 -3 0
-11 -7 5 0
11 -7 -5 0
-11 -7 -1 0
11 6 -3 0
-11 5 -4 0
11 5 4 0
10 -9 -5 0
-10 -7 5 0
-10 -7 -4 0
10 6 -4 0
-10 -3 -1 0
-9 -7 6 0
9 6 -3 0
9 -5 -2 0
-9 5 -1 0
9 -3 -1 0
-7 6 -3 0
-7 6 -2 0
-5 4 1 0
5 3 -1 0
4 2 -1 0
